p cnf 683 717
-195 -592 -589 0
-195 592 589 0
195 -592 589 0
195 592 -589 0
-196 -598 -595 0
-196 598 595 0
196 -598 595 0
196 598 -595 0
-198 -604 -601 0
-198 604 601 0
198 -604 601 0
198 604 -601 0
-199 -610 -607 0
-199 610 607 0
199 -610 607 0
199 610 -607 0
-201 -616 -613 0
-201 616 613 0
201 -616 613 0
201 616 -613 0
-202 -622 -619 0
-202 622 619 0
202 -622 619 0
202 622 -619 0
-204 -628 -625 0
-204 628 625 0
204 -628 625 0
204 628 -625 0
-205 -634 -631 0
-205 634 631 0
205 -634 631 0
205 634 -631 0
-207 -640 -637 0
-207 640 637 0
207 -640 637 0
207 640 -637 0
-208 -646 -643 0
-208 646 643 0
208 -646 643 0
208 646 -643 0
-210 -652 -649 0
-210 652 649 0
210 -652 649 0
210 652 -649 0
-211 -658 -655 0
-211 658 655 0
211 -658 655 0
211 658 -655 0
-213 -664 -661 0
-213 664 661 0
213 -664 661 0
213 664 -661 0
-214 -670 -667 0
-214 670 667 0
214 -670 667 0
214 670 -667 0
-216 -676 -673 0
-216 676 673 0
216 -676 673 0
216 676 -673 0
-217 -682 -679 0
-217 682 679 0
217 -682 679 0
217 682 -679 0
-267 123 0
-267 145 0
267 -123 -145 0
-270 126 0
-270 145 0
270 -126 -145 0
-273 129 0
-273 145 0
273 -129 -145 0
-276 132 0
-276 145 0
276 -132 -145 0
-279 135 0
-279 145 0
279 -135 -145 0
-282 138 0
-282 145 0
282 -138 -145 0
-285 141 0
-285 145 0
285 -141 -145 0
-288 144 0
-288 145 0
288 -144 -145 0
-219 -601 -589 0
-219 601 589 0
219 -601 589 0
219 601 -589 0
-220 -625 -613 0
-220 625 613 0
220 -625 613 0
220 625 -613 0
-222 -604 -592 0
-222 604 592 0
222 -604 592 0
222 604 -592 0
-223 -628 -616 0
-223 628 616 0
223 -628 616 0
223 628 -616 0
-225 -607 -595 0
-225 607 595 0
225 -607 595 0
225 607 -595 0
-226 -631 -619 0
-226 631 619 0
226 -631 619 0
226 631 -619 0
-228 -610 -598 0
-228 610 598 0
228 -610 598 0
228 610 -598 0
-229 -634 -622 0
-229 634 622 0
229 -634 622 0
229 634 -622 0
-231 -649 -637 0
-231 649 637 0
231 -649 637 0
231 649 -637 0
-232 -673 -661 0
-232 673 661 0
232 -673 661 0
232 673 -661 0
-234 -652 -640 0
-234 652 640 0
234 -652 640 0
234 652 -640 0
-235 -676 -664 0
-235 676 664 0
235 -676 664 0
235 676 -664 0
-237 -655 -643 0
-237 655 643 0
237 -655 643 0
237 655 -643 0
-238 -679 -667 0
-238 679 667 0
238 -679 667 0
238 679 -667 0
-240 -658 -646 0
-240 658 646 0
240 -658 646 0
240 658 -646 0
-241 -682 -670 0
-241 682 670 0
241 -682 670 0
241 682 -670 0
-249 -196 -195 0
-249 196 195 0
249 -196 195 0
249 196 -195 0
-252 -199 -198 0
-252 199 198 0
252 -199 198 0
252 199 -198 0
-250 -202 -201 0
-250 202 201 0
250 -202 201 0
250 202 -201 0
-253 -205 -204 0
-253 205 204 0
253 -205 204 0
253 205 -204 0
-261 -208 -207 0
-261 208 207 0
261 -208 207 0
261 208 -207 0
-264 -211 -210 0
-264 211 210 0
264 -211 210 0
264 211 -210 0
-262 -214 -213 0
-262 214 213 0
262 -214 213 0
262 214 -213 0
-265 -217 -216 0
-265 217 216 0
265 -217 216 0
265 217 -216 0
-291 -220 -219 0
-291 220 219 0
291 -220 219 0
291 220 -219 0
-294 -223 -222 0
-294 223 222 0
294 -223 222 0
294 223 -222 0
-297 -226 -225 0
-297 226 225 0
297 -226 225 0
297 226 -225 0
-300 -229 -228 0
-300 229 228 0
300 -229 228 0
300 229 -228 0
-303 -232 -231 0
-303 232 231 0
303 -232 231 0
303 232 -231 0
-306 -235 -234 0
-306 235 234 0
306 -235 234 0
306 235 -234 0
-309 -238 -237 0
-309 238 237 0
309 -238 237 0
309 238 -237 0
-312 -241 -240 0
-312 241 240 0
312 -241 240 0
312 241 -240 0
-280 -252 -249 0
-280 252 249 0
280 -252 249 0
280 252 -249 0
-283 -253 -250 0
-283 253 250 0
283 -253 250 0
283 253 -250 0
-286 -250 -249 0
-286 250 249 0
286 -250 249 0
286 250 -249 0
-289 -253 -252 0
-289 253 252 0
289 -253 252 0
289 253 -252 0
-268 -264 -261 0
-268 264 261 0
268 -264 261 0
268 264 -261 0
-271 -265 -262 0
-271 265 262 0
271 -265 262 0
271 265 -262 0
-274 -262 -261 0
-274 262 261 0
274 -262 261 0
274 262 -261 0
-277 -265 -264 0
-277 265 264 0
277 -265 264 0
277 265 -264 0
-292 -268 -267 0
-292 268 267 0
292 -268 267 0
292 268 -267 0
-295 -271 -270 0
-295 271 270 0
295 -271 270 0
295 271 -270 0
-298 -274 -273 0
-298 274 273 0
298 -274 273 0
298 274 -273 0
-301 -277 -276 0
-301 277 276 0
301 -277 276 0
301 277 -276 0
-304 -280 -279 0
-304 280 279 0
304 -280 279 0
304 280 -279 0
-307 -283 -282 0
-307 283 282 0
307 -283 282 0
307 283 -282 0
-310 -286 -285 0
-310 286 285 0
310 -286 285 0
310 286 -285 0
-313 -289 -288 0
-313 289 288 0
313 -289 288 0
313 289 -288 0
-529 -292 -291 0
-529 292 291 0
529 -292 291 0
529 292 -291 0
-532 -295 -294 0
-532 295 294 0
532 -295 294 0
532 295 -294 0
-535 -298 -297 0
-535 298 297 0
535 -298 297 0
535 298 -297 0
-538 -301 -300 0
-538 301 300 0
538 -301 300 0
538 301 -300 0
-577 -304 -303 0
-577 304 303 0
577 -304 303 0
577 304 -303 0
-580 -307 -306 0
-580 307 306 0
580 -307 306 0
580 307 -306 0
-583 -310 -309 0
-583 310 309 0
583 -310 309 0
583 310 -309 0
-586 -313 -312 0
-586 313 312 0
586 -313 312 0
586 313 -312 0
395 529 0
-395 -529 0
396 532 0
-396 -532 0
397 535 0
-397 -535 0
400 529 0
-400 -529 0
401 532 0
-401 -532 0
403 538 0
-403 -538 0
405 529 0
-405 -529 0
407 535 0
-407 -535 0
408 538 0
-408 -538 0
411 532 0
-411 -532 0
412 535 0
-412 -535 0
413 538 0
-413 -538 0
446 580 0
-446 -580 0
448 586 0
-448 -586 0
452 580 0
-452 -580 0
453 583 0
-453 -583 0
457 577 0
-457 -577 0
460 586 0
-460 -586 0
463 577 0
-463 -577 0
465 583 0
-465 -583 0
415 577 0
-415 -577 0
416 580 0
-416 -580 0
417 583 0
-417 -583 0
420 577 0
-420 -577 0
421 580 0
-421 -580 0
423 586 0
-423 -586 0
425 577 0
-425 -577 0
427 583 0
-427 -583 0
428 586 0
-428 -586 0
431 580 0
-431 -580 0
432 583 0
-432 -583 0
433 586 0
-433 -586 0
470 532 0
-470 -532 0
472 538 0
-472 -538 0
476 532 0
-476 -532 0
477 535 0
-477 -535 0
481 529 0
-481 -529 0
484 538 0
-484 -538 0
487 529 0
-487 -529 0
489 535 0
-489 -535 0
-435 395 0
-435 396 0
-435 397 0
-435 538 0
435 -395 -396 -397 -538 0
-436 400 0
-436 401 0
-436 535 0
-436 403 0
436 -400 -401 -535 -403 0
-437 405 0
-437 532 0
-437 407 0
-437 408 0
437 -405 -532 -407 -408 0
-438 529 0
-438 411 0
-438 412 0
-438 413 0
438 -529 -411 -412 -413 0
-440 415 0
-440 416 0
-440 417 0
-440 586 0
440 -415 -416 -417 -586 0
-441 420 0
-441 421 0
-441 583 0
-441 423 0
441 -420 -421 -583 -423 0
-442 425 0
-442 580 0
-442 427 0
-442 428 0
442 -425 -580 -427 -428 0
-443 577 0
-443 431 0
-443 432 0
-443 433 0
443 -577 -431 -432 -433 0
467 -435 0
467 -436 0
467 -437 0
467 -438 0
-467 435 436 437 438 0
491 -440 0
491 -441 0
491 -442 0
491 -443 0
-491 440 441 442 443 0
-503 577 0
-503 446 0
-503 583 0
-503 448 0
-503 467 0
503 -577 -446 -583 -448 -467 0
-515 577 0
-515 452 0
-515 453 0
-515 586 0
-515 467 0
515 -577 -452 -453 -586 -467 0
-527 457 0
-527 580 0
-527 583 0
-527 460 0
-527 467 0
527 -457 -580 -583 -460 -467 0
-539 463 0
-539 580 0
-539 465 0
-539 586 0
-539 467 0
539 -463 -580 -465 -586 -467 0
-551 529 0
-551 470 0
-551 535 0
-551 472 0
-551 491 0
551 -529 -470 -535 -472 -491 0
-563 529 0
-563 476 0
-563 477 0
-563 538 0
-563 491 0
563 -529 -476 -477 -538 -491 0
-575 481 0
-575 532 0
-575 535 0
-575 484 0
-575 491 0
575 -481 -532 -535 -484 -491 0
-587 487 0
-587 532 0
-587 489 0
-587 538 0
-587 491 0
587 -487 -532 -489 -538 -491 0
-590 529 0
-590 503 0
590 -529 -503 0
-593 532 0
-593 503 0
593 -532 -503 0
-596 535 0
-596 503 0
596 -535 -503 0
-599 538 0
-599 503 0
599 -538 -503 0
-602 529 0
-602 515 0
602 -529 -515 0
-605 532 0
-605 515 0
605 -532 -515 0
-608 535 0
-608 515 0
608 -535 -515 0
-611 538 0
-611 515 0
611 -538 -515 0
-614 529 0
-614 527 0
614 -529 -527 0
-617 532 0
-617 527 0
617 -532 -527 0
-620 535 0
-620 527 0
620 -535 -527 0
-623 538 0
-623 527 0
623 -538 -527 0
-626 529 0
-626 539 0
626 -529 -539 0
-629 532 0
-629 539 0
629 -532 -539 0
-632 535 0
-632 539 0
632 -535 -539 0
-635 538 0
-635 539 0
635 -538 -539 0
-638 577 0
-638 551 0
638 -577 -551 0
-641 580 0
-641 551 0
641 -580 -551 0
-644 583 0
-644 551 0
644 -583 -551 0
-647 586 0
-647 551 0
647 -586 -551 0
-650 577 0
-650 563 0
650 -577 -563 0
-653 580 0
-653 563 0
653 -580 -563 0
-656 583 0
-656 563 0
656 -583 -563 0
-659 586 0
-659 563 0
659 -586 -563 0
-662 577 0
-662 575 0
662 -577 -575 0
-665 580 0
-665 575 0
665 -580 -575 0
-668 583 0
-668 575 0
668 -583 -575 0
-671 586 0
-671 575 0
671 -586 -575 0
-674 577 0
-674 587 0
674 -577 -587 0
-677 580 0
-677 587 0
677 -580 -587 0
-680 583 0
-680 587 0
680 -583 -587 0
-683 586 0
-683 587 0
683 -586 -587 0
-588 -590 -589 0
-588 590 589 0
588 -590 589 0
588 590 -589 0
-591 -593 -592 0
-591 593 592 0
591 -593 592 0
591 593 -592 0
-594 -596 -595 0
-594 596 595 0
594 -596 595 0
594 596 -595 0
-597 -599 -598 0
-597 599 598 0
597 -599 598 0
597 599 -598 0
-600 -602 -601 0
-600 602 601 0
600 -602 601 0
600 602 -601 0
-603 -605 -604 0
-603 605 604 0
603 -605 604 0
603 605 -604 0
-606 -608 -607 0
-606 608 607 0
606 -608 607 0
606 608 -607 0
-609 -611 -610 0
-609 611 610 0
609 -611 610 0
609 611 -610 0
-612 -614 -613 0
-612 614 613 0
612 -614 613 0
612 614 -613 0
-615 -617 -616 0
-615 617 616 0
615 -617 616 0
615 617 -616 0
-618 -620 -619 0
-618 620 619 0
618 -620 619 0
618 620 -619 0
-621 -623 -622 0
-621 623 622 0
621 -623 622 0
621 623 -622 0
-624 -626 -625 0
-624 626 625 0
624 -626 625 0
624 626 -625 0
-627 -629 -628 0
-627 629 628 0
627 -629 628 0
627 629 -628 0
-630 -632 -631 0
-630 632 631 0
630 -632 631 0
630 632 -631 0
-633 -635 -634 0
-633 635 634 0
633 -635 634 0
633 635 -634 0
-636 -638 -637 0
-636 638 637 0
636 -638 637 0
636 638 -637 0
-639 -641 -640 0
-639 641 640 0
639 -641 640 0
639 641 -640 0
-642 -644 -643 0
-642 644 643 0
642 -644 643 0
642 644 -643 0
-645 -647 -646 0
-645 647 646 0
645 -647 646 0
645 647 -646 0
-648 -650 -649 0
-648 650 649 0
648 -650 649 0
648 650 -649 0
-651 -653 -652 0
-651 653 652 0
651 -653 652 0
651 653 -652 0
-654 -656 -655 0
-654 656 655 0
654 -656 655 0
654 656 -655 0
-657 -659 -658 0
-657 659 658 0
657 -659 658 0
657 659 -658 0
-660 -662 -661 0
-660 662 661 0
660 -662 661 0
660 662 -661 0
-663 -665 -664 0
-663 665 664 0
663 -665 664 0
663 665 -664 0
-666 -668 -667 0
-666 668 667 0
666 -668 667 0
666 668 -667 0
-669 -671 -670 0
-669 671 670 0
669 -671 670 0
669 671 -670 0
-672 -674 -673 0
-672 674 673 0
672 -674 673 0
672 674 -673 0
-675 -677 -676 0
-675 677 676 0
675 -677 676 0
675 677 -676 0
-678 -680 -679 0
-678 680 679 0
678 -680 679 0
678 680 -679 0
-681 -683 -682 0
-681 683 682 0
681 -683 682 0
681 683 -682 0
588 0
-633 0
681 0